HUN,8,6,566
1,15,0,11,2,27,3,2,4,10,5,10
2,29,1,21,0,4,3,20,5,24,4,16
2,12,1,17,0,15,4,26,5,30,3,1
2,5,1,25,0,29,3,20,5,24,4,1
2,27,0,25,1,14,4,27,5,30,3,9
2,25,1,22,0,16,5,17,3,14,4,16
0,27,1,7,2,2,5,21,4,6,3,24
2,25,0,6,1,20,3,6,4,22,5,11
